c Created with the Wolfram Language : www.wolfram.com
c 
p edge 80 166
e 5 10
e 7 18
e 6 20
e 9 20
e 9 21
e 16 23
e 7 24
e 4 25
e 20 25
e 8 27
e 11 30
e 26 30
e 24 31
e 27 31
e 1 32
e 4 32
e 12 32
e 22 32
e 1 33
e 14 33
e 21 34
e 32 34
e 28 35
e 23 36
e 23 37
e 32 37
e 34 37
e 28 38
e 31 38
e 5 39
e 7 39
e 8 39
e 17 39
e 18 39
e 1 40
e 21 40
e 33 41
e 15 42
e 19 42
e 30 42
e 3 44
e 24 44
e 33 44
e 2 45
e 23 45
e 32 45
e 5 46
e 40 46
e 13 47
e 23 47
e 4 48
e 3 49
e 12 50
e 49 50
e 1 51
e 18 51
e 37 52
e 44 52
e 13 53
e 33 53
e 42 53
e 46 53
e 1 54
e 13 54
e 23 54
e 36 54
e 40 54
e 50 54
e 7 55
e 12 55
e 44 55
e 52 57
e 54 57
e 38 58
e 16 59
e 49 59
e 3 60
e 14 60
e 22 60
e 23 60
e 25 60
e 33 60
e 43 60
e 27 61
e 45 61
e 36 62
e 39 62
e 61 62
e 12 63
e 26 63
e 36 63
e 39 63
e 8 64
e 9 64
e 25 64
e 61 64
e 13 65
e 29 65
e 51 65
e 57 65
e 30 66
e 36 66
e 48 66
e 58 66
e 19 67
e 46 67
e 64 67
e 27 68
e 32 68
e 54 68
e 32 69
e 33 69
e 36 69
e 45 69
e 24 70
e 30 70
e 65 70
e 66 70
e 69 70
e 15 71
e 16 71
e 17 71
e 23 71
e 55 71
e 56 71
e 57 71
e 8 72
e 13 72
e 18 72
e 38 72
e 50 72
e 31 73
e 40 73
e 68 73
e 16 74
e 59 74
e 22 75
e 25 75
e 45 75
e 56 75
e 58 76
e 66 76
e 8 77
e 9 77
e 12 77
e 18 77
e 29 77
e 44 77
e 66 77
e 71 77
e 1 78
e 4 78
e 6 78
e 18 78
e 31 78
e 35 78
e 37 78
e 42 78
e 66 78
e 71 79
e 72 79
e 24 80
e 35 80
e 37 80
e 38 80
e 64 80
